unknown
(model
; cardinality of BoundSet is 3
(declare-sort BoundSet 0)
; rep: @uc_BoundSet_0
; rep: @uc_BoundSet_1
; rep: @uc_BoundSet_2
; cardinality of UnboundSet is 1
(declare-sort UnboundSet 0)
(declare-fun groundTerm_4 () UnboundSet)
(define-fun IsSettled ((BOUND_VARIABLE_413 BoundSet)) Bool true)
(define-fun Defies ((BOUND_VARIABLE_420 BoundSet) (BOUND_VARIABLE_421 BoundSet)) Bool true)
(define-fun IsWrong ((BOUND_VARIABLE_413 BoundSet)) Bool false)
)
sat
(model
; cardinality of BoundSet is 1
(declare-sort BoundSet 0)
; rep: @uc_BoundSet_0
; cardinality of UnboundSet is 1
(declare-sort UnboundSet 0)
(declare-fun groundTerm_6 () UnboundSet)
(define-fun IsSettled ((BOUND_VARIABLE_446 BoundSet)) Bool true)
(define-fun Defies ((BOUND_VARIABLE_453 BoundSet) (BOUND_VARIABLE_454 BoundSet)) Bool true)
(define-fun IsWrong ((BOUND_VARIABLE_446 BoundSet)) Bool false)
)
